(declare-fun b76 () (_ FloatingPoint 8 24))
(declare-fun b495 () (_ FloatingPoint 8 24))
(declare-fun b232 () (_ FloatingPoint 11 53))
(declare-fun b69 () (_ FloatingPoint 8 24))
(declare-fun b410 () (_ FloatingPoint 8 24))
(declare-fun b441 () (_ FloatingPoint 8 24))
(declare-fun b476 () (_ FloatingPoint 8 24))
(declare-fun b242 () (_ FloatingPoint 8 24))
(declare-fun b85 () (_ FloatingPoint 11 53))
(declare-fun b504 () (_ FloatingPoint 8 24))
(declare-fun b74 () (_ FloatingPoint 11 53))
(declare-fun b405 () (_ FloatingPoint 8 24))
(declare-fun b71 () (_ FloatingPoint 8 24))
(declare-fun b446 () (_ FloatingPoint 8 24))
(declare-fun b389 () (_ FloatingPoint 8 24))
(declare-fun b384 () (_ FloatingPoint 8 24))
(assert (let ((.def_180 (fp.leq b384 b242)))
(let ((.def_181 (not .def_180)))
(let ((.def_11 (fp.div RNE b69 b71)))
(let ((.def_12 ((_ to_fp 11 53) RNE .def_11)))
(let ((.def_14 (fp.mul RNE .def_12 b85)))
(let ((.def_15 (fp.mul RNE .def_11 .def_11)))
(let ((.def_16 (fp.neg .def_15)))
(let ((.def_17 (fp.add RNE b69 .def_16)))
(let ((.def_18 ((_ to_fp 11 53) RNE .def_17)))
(let ((.def_19 (fp.div RNE .def_18 .def_14)))
(let ((.def_20 ((_ to_fp 8 24) RNE .def_19)))
(let ((.def_21 (fp.add RNE .def_11 .def_20)))
(let ((.def_22 (fp.mul RNE .def_21 .def_21)))
(let ((.def_23 (fp.neg .def_22)))
(let ((.def_24 (fp.add RNE b69 .def_23)))
(let ((.def_25 ((_ to_fp 11 53) RNE .def_24)))
(let ((.def_26 ((_ to_fp 8 24) RNE .def_25)))
(let ((.def_176 (fp.neg .def_26)))
(let ((.def_177 (= b504 .def_176)))
(let ((.def_173 (fp.leq b76 .def_26)))
(let ((.def_174 (not .def_173)))
(let ((.def_30 ((_ to_fp 11 53) RNE .def_21)))
(let ((.def_31 (fp.mul RNE b85 .def_30)))
(let ((.def_32 (fp.div RNE .def_25 .def_31)))
(let ((.def_33 ((_ to_fp 8 24) RNE .def_32)))
(let ((.def_34 (fp.add RNE .def_21 .def_33)))
(let ((.def_35 (fp.mul RNE .def_34 .def_34)))
(let ((.def_36 (fp.neg .def_35)))
(let ((.def_37 (fp.add RNE b69 .def_36)))
(let ((.def_38 ((_ to_fp 11 53) RNE .def_37)))
(let ((.def_39 ((_ to_fp 8 24) RNE .def_38)))
(let ((.def_169 (fp.neg .def_39)))
(let ((.def_170 (= b495 .def_169)))
(let ((.def_166 (fp.leq b76 .def_39)))
(let ((.def_167 (not .def_166)))
(let ((.def_162 ((_ to_fp 11 53) RNE b495)))
(let ((.def_163 (fp.leq .def_162 b74)))
(let ((.def_164 (not .def_163)))
(let ((.def_158 ((_ to_fp 11 53) RNE b504)))
(let ((.def_159 (fp.leq .def_158 b74)))
(let ((.def_156 (= .def_21 b446)))
(let ((.def_46 ((_ to_fp 11 53) RNE b446)))
(let ((.def_47 (fp.mul RNE b85 .def_46)))
(let ((.def_48 (fp.mul RNE b446 b446)))
(let ((.def_49 (fp.neg .def_48)))
(let ((.def_50 (fp.add RNE b69 .def_49)))
(let ((.def_51 ((_ to_fp 11 53) RNE .def_50)))
(let ((.def_52 (fp.div RNE .def_51 .def_47)))
(let ((.def_53 ((_ to_fp 8 24) RNE .def_52)))
(let ((.def_54 (fp.add RNE b446 .def_53)))
(let ((.def_55 (fp.mul RNE .def_54 .def_54)))
(let ((.def_56 (fp.neg .def_55)))
(let ((.def_57 (fp.add RNE b69 .def_56)))
(let ((.def_58 ((_ to_fp 11 53) RNE .def_57)))
(let ((.def_59 ((_ to_fp 8 24) RNE .def_58)))
(let ((.def_152 (fp.neg .def_59)))
(let ((.def_153 (= b476 .def_152)))
(let ((.def_149 (fp.leq b76 .def_59)))
(let ((.def_150 (not .def_149)))
(let ((.def_145 ((_ to_fp 11 53) RNE b476)))
(let ((.def_146 (fp.leq .def_145 b74)))
(let ((.def_147 (not .def_146)))
(let ((.def_142 (= b446 b410)))
(let ((.def_66 ((_ to_fp 11 53) RNE b410)))
(let ((.def_67 (fp.mul RNE b85 .def_66)))
(let ((.def_68 (fp.mul RNE b410 b410)))
(let ((.def_69 (fp.neg .def_68)))
(let ((.def_70 (fp.add RNE b69 .def_69)))
(let ((.def_71 ((_ to_fp 11 53) RNE .def_70)))
(let ((.def_72 (fp.div RNE .def_71 .def_67)))
(let ((.def_73 ((_ to_fp 8 24) RNE .def_72)))
(let ((.def_74 (fp.add RNE b410 .def_73)))
(let ((.def_75 (fp.mul RNE .def_74 .def_74)))
(let ((.def_76 (fp.neg .def_75)))
(let ((.def_77 (fp.add RNE b69 .def_76)))
(let ((.def_78 ((_ to_fp 11 53) RNE .def_77)))
(let ((.def_79 ((_ to_fp 8 24) RNE .def_78)))
(let ((.def_138 (fp.neg .def_79)))
(let ((.def_139 (= b441 .def_138)))
(let ((.def_135 (fp.leq b76 .def_79)))
(let ((.def_136 (not .def_135)))
(let ((.def_130 ((_ to_fp 11 53) RNE b441)))
(let ((.def_132 (fp.leq .def_130 b74)))
(let ((.def_133 (not .def_132)))
(let ((.def_127 (= b410 b389)))
(let ((.def_86 ((_ to_fp 11 53) RNE b389)))
(let ((.def_87 (fp.mul RNE b85 .def_86)))
(let ((.def_88 (fp.mul RNE b389 b389)))
(let ((.def_89 (fp.neg .def_88)))
(let ((.def_90 (fp.add RNE b69 .def_89)))
(let ((.def_91 ((_ to_fp 11 53) RNE .def_90)))
(let ((.def_92 (fp.div RNE .def_91 .def_87)))
(let ((.def_93 ((_ to_fp 8 24) RNE .def_92)))
(let ((.def_94 (fp.add RNE b389 .def_93)))
(let ((.def_95 (fp.mul RNE .def_94 .def_94)))
(let ((.def_96 (fp.neg .def_95)))
(let ((.def_97 (fp.add RNE b69 .def_96)))
(let ((.def_98 ((_ to_fp 11 53) RNE .def_97)))
(let ((.def_99 ((_ to_fp 8 24) RNE .def_98)))
(let ((.def_123 (fp.neg .def_99)))
(let ((.def_124 (= b405 .def_123)))
(let ((.def_120 (fp.leq b76 .def_99)))
(let ((.def_121 (not .def_120)))
(let ((.def_104 ((_ to_fp 8 24) RNE b232)))
(let ((.def_116 (fp.neg .def_104)))
(let ((.def_117 (= b384 .def_116)))
(let ((.def_113 (fp.leq b76 .def_104)))
(let ((.def_114 (not .def_113)))
(let ((.def_111 (fp.leq b76 b69)))
(let ((.def_109 (fp.eq b69 b76)))
(let ((.def_110 (not .def_109)))
(let ((.def_112 (and .def_110 .def_111)))
(let ((.def_115 (and .def_112 .def_114)))
(let ((.def_118 (and .def_115 .def_117)))
(let ((.def_106 (= .def_104 b384)))
(let ((.def_107 (not .def_106)))
(let ((.def_119 (and .def_107 .def_118)))
(let ((.def_122 (and .def_119 .def_121)))
(let ((.def_125 (and .def_122 .def_124)))
(let ((.def_101 (= .def_99 b405)))
(let ((.def_102 (not .def_101)))
(let ((.def_126 (and .def_102 .def_125)))
(let ((.def_128 (and .def_126 .def_127)))
(let ((.def_84 (= .def_74 b389)))
(let ((.def_85 (not .def_84)))
(let ((.def_129 (and .def_85 .def_128)))
(let ((.def_134 (and .def_129 .def_133)))
(let ((.def_137 (and .def_134 .def_136)))
(let ((.def_140 (and .def_137 .def_139)))
(let ((.def_81 (= .def_79 b441)))
(let ((.def_82 (not .def_81)))
(let ((.def_141 (and .def_82 .def_140)))
(let ((.def_143 (and .def_141 .def_142)))
(let ((.def_64 (= .def_54 b410)))
(let ((.def_65 (not .def_64)))
(let ((.def_144 (and .def_65 .def_143)))
(let ((.def_148 (and .def_144 .def_147)))
(let ((.def_151 (and .def_148 .def_150)))
(let ((.def_154 (and .def_151 .def_153)))
(let ((.def_61 (= .def_59 b476)))
(let ((.def_62 (not .def_61)))
(let ((.def_155 (and .def_62 .def_154)))
(let ((.def_157 (and .def_155 .def_156)))
(let ((.def_160 (and .def_157 .def_159)))
(let ((.def_44 (= .def_34 b446)))
(let ((.def_45 (not .def_44)))
(let ((.def_161 (and .def_45 .def_160)))
(let ((.def_165 (and .def_161 .def_164)))
(let ((.def_168 (and .def_165 .def_167)))
(let ((.def_171 (and .def_168 .def_170)))
(let ((.def_41 (= .def_39 b495)))
(let ((.def_42 (not .def_41)))
(let ((.def_172 (and .def_42 .def_171)))
(let ((.def_175 (and .def_172 .def_174)))
(let ((.def_178 (and .def_175 .def_177)))
(let ((.def_182 (and .def_178 .def_181)))
(let ((.def_28 (= .def_26 b504)))
(let ((.def_29 (not .def_28)))
(let ((.def_183 (and .def_29 .def_182)))
.def_183))))))))))))))))))))))))))))))))))))))))))))))))))))))))))))))))))))))))))))))))))))))))))))))))))))))))))))))))))))))))))))))))))))))))))))))))))))))))))))))))
(check-sat)
